c *********************************
c * Circuit generated by BenCGen
c *
c * Parity_296
c *
c * Ports with 1 gate(s): 1
c * Ports with 2 gate(s): 296
c * Total gates: 297
c *********************************
p cnf 593 1185
1 299 0
-1 -299 0
1 -298 0
299 -298 0
-1 -299 298 0
1 2 -300 0
-1 2 300 0
1 -2 300 0
-1 -2 -300 0
3 4 -301 0
-3 4 301 0
3 -4 301 0
-3 -4 -301 0
5 6 -302 0
-5 6 302 0
5 -6 302 0
-5 -6 -302 0
7 8 -303 0
-7 8 303 0
7 -8 303 0
-7 -8 -303 0
9 10 -304 0
-9 10 304 0
9 -10 304 0
-9 -10 -304 0
11 12 -305 0
-11 12 305 0
11 -12 305 0
-11 -12 -305 0
13 14 -306 0
-13 14 306 0
13 -14 306 0
-13 -14 -306 0
15 16 -307 0
-15 16 307 0
15 -16 307 0
-15 -16 -307 0
17 18 -308 0
-17 18 308 0
17 -18 308 0
-17 -18 -308 0
19 20 -309 0
-19 20 309 0
19 -20 309 0
-19 -20 -309 0
21 22 -310 0
-21 22 310 0
21 -22 310 0
-21 -22 -310 0
23 24 -311 0
-23 24 311 0
23 -24 311 0
-23 -24 -311 0
25 26 -312 0
-25 26 312 0
25 -26 312 0
-25 -26 -312 0
27 28 -313 0
-27 28 313 0
27 -28 313 0
-27 -28 -313 0
29 30 -314 0
-29 30 314 0
29 -30 314 0
-29 -30 -314 0
31 32 -315 0
-31 32 315 0
31 -32 315 0
-31 -32 -315 0
33 34 -316 0
-33 34 316 0
33 -34 316 0
-33 -34 -316 0
35 36 -317 0
-35 36 317 0
35 -36 317 0
-35 -36 -317 0
37 38 -318 0
-37 38 318 0
37 -38 318 0
-37 -38 -318 0
39 40 -319 0
-39 40 319 0
39 -40 319 0
-39 -40 -319 0
41 42 -320 0
-41 42 320 0
41 -42 320 0
-41 -42 -320 0
43 44 -321 0
-43 44 321 0
43 -44 321 0
-43 -44 -321 0
45 46 -322 0
-45 46 322 0
45 -46 322 0
-45 -46 -322 0
47 48 -323 0
-47 48 323 0
47 -48 323 0
-47 -48 -323 0
49 50 -324 0
-49 50 324 0
49 -50 324 0
-49 -50 -324 0
51 52 -325 0
-51 52 325 0
51 -52 325 0
-51 -52 -325 0
53 54 -326 0
-53 54 326 0
53 -54 326 0
-53 -54 -326 0
55 56 -327 0
-55 56 327 0
55 -56 327 0
-55 -56 -327 0
57 58 -328 0
-57 58 328 0
57 -58 328 0
-57 -58 -328 0
59 60 -329 0
-59 60 329 0
59 -60 329 0
-59 -60 -329 0
61 62 -330 0
-61 62 330 0
61 -62 330 0
-61 -62 -330 0
63 64 -331 0
-63 64 331 0
63 -64 331 0
-63 -64 -331 0
65 66 -332 0
-65 66 332 0
65 -66 332 0
-65 -66 -332 0
67 68 -333 0
-67 68 333 0
67 -68 333 0
-67 -68 -333 0
69 70 -334 0
-69 70 334 0
69 -70 334 0
-69 -70 -334 0
71 72 -335 0
-71 72 335 0
71 -72 335 0
-71 -72 -335 0
73 74 -336 0
-73 74 336 0
73 -74 336 0
-73 -74 -336 0
75 76 -337 0
-75 76 337 0
75 -76 337 0
-75 -76 -337 0
77 78 -338 0
-77 78 338 0
77 -78 338 0
-77 -78 -338 0
79 80 -339 0
-79 80 339 0
79 -80 339 0
-79 -80 -339 0
81 82 -340 0
-81 82 340 0
81 -82 340 0
-81 -82 -340 0
83 84 -341 0
-83 84 341 0
83 -84 341 0
-83 -84 -341 0
85 86 -342 0
-85 86 342 0
85 -86 342 0
-85 -86 -342 0
87 88 -343 0
-87 88 343 0
87 -88 343 0
-87 -88 -343 0
89 90 -344 0
-89 90 344 0
89 -90 344 0
-89 -90 -344 0
91 92 -345 0
-91 92 345 0
91 -92 345 0
-91 -92 -345 0
93 94 -346 0
-93 94 346 0
93 -94 346 0
-93 -94 -346 0
95 96 -347 0
-95 96 347 0
95 -96 347 0
-95 -96 -347 0
97 98 -348 0
-97 98 348 0
97 -98 348 0
-97 -98 -348 0
99 100 -349 0
-99 100 349 0
99 -100 349 0
-99 -100 -349 0
101 102 -350 0
-101 102 350 0
101 -102 350 0
-101 -102 -350 0
103 104 -351 0
-103 104 351 0
103 -104 351 0
-103 -104 -351 0
105 106 -352 0
-105 106 352 0
105 -106 352 0
-105 -106 -352 0
107 108 -353 0
-107 108 353 0
107 -108 353 0
-107 -108 -353 0
109 110 -354 0
-109 110 354 0
109 -110 354 0
-109 -110 -354 0
111 112 -355 0
-111 112 355 0
111 -112 355 0
-111 -112 -355 0
113 114 -356 0
-113 114 356 0
113 -114 356 0
-113 -114 -356 0
115 116 -357 0
-115 116 357 0
115 -116 357 0
-115 -116 -357 0
117 118 -358 0
-117 118 358 0
117 -118 358 0
-117 -118 -358 0
119 120 -359 0
-119 120 359 0
119 -120 359 0
-119 -120 -359 0
121 122 -360 0
-121 122 360 0
121 -122 360 0
-121 -122 -360 0
123 124 -361 0
-123 124 361 0
123 -124 361 0
-123 -124 -361 0
125 126 -362 0
-125 126 362 0
125 -126 362 0
-125 -126 -362 0
127 128 -363 0
-127 128 363 0
127 -128 363 0
-127 -128 -363 0
129 130 -364 0
-129 130 364 0
129 -130 364 0
-129 -130 -364 0
131 132 -365 0
-131 132 365 0
131 -132 365 0
-131 -132 -365 0
133 134 -366 0
-133 134 366 0
133 -134 366 0
-133 -134 -366 0
135 136 -367 0
-135 136 367 0
135 -136 367 0
-135 -136 -367 0
137 138 -368 0
-137 138 368 0
137 -138 368 0
-137 -138 -368 0
139 140 -369 0
-139 140 369 0
139 -140 369 0
-139 -140 -369 0
141 142 -370 0
-141 142 370 0
141 -142 370 0
-141 -142 -370 0
143 144 -371 0
-143 144 371 0
143 -144 371 0
-143 -144 -371 0
145 146 -372 0
-145 146 372 0
145 -146 372 0
-145 -146 -372 0
147 148 -373 0
-147 148 373 0
147 -148 373 0
-147 -148 -373 0
149 150 -374 0
-149 150 374 0
149 -150 374 0
-149 -150 -374 0
151 152 -375 0
-151 152 375 0
151 -152 375 0
-151 -152 -375 0
153 154 -376 0
-153 154 376 0
153 -154 376 0
-153 -154 -376 0
155 156 -377 0
-155 156 377 0
155 -156 377 0
-155 -156 -377 0
157 158 -378 0
-157 158 378 0
157 -158 378 0
-157 -158 -378 0
159 160 -379 0
-159 160 379 0
159 -160 379 0
-159 -160 -379 0
161 162 -380 0
-161 162 380 0
161 -162 380 0
-161 -162 -380 0
163 164 -381 0
-163 164 381 0
163 -164 381 0
-163 -164 -381 0
165 166 -382 0
-165 166 382 0
165 -166 382 0
-165 -166 -382 0
167 168 -383 0
-167 168 383 0
167 -168 383 0
-167 -168 -383 0
169 170 -384 0
-169 170 384 0
169 -170 384 0
-169 -170 -384 0
171 172 -385 0
-171 172 385 0
171 -172 385 0
-171 -172 -385 0
173 174 -386 0
-173 174 386 0
173 -174 386 0
-173 -174 -386 0
175 176 -387 0
-175 176 387 0
175 -176 387 0
-175 -176 -387 0
177 178 -388 0
-177 178 388 0
177 -178 388 0
-177 -178 -388 0
179 180 -389 0
-179 180 389 0
179 -180 389 0
-179 -180 -389 0
181 182 -390 0
-181 182 390 0
181 -182 390 0
-181 -182 -390 0
183 184 -391 0
-183 184 391 0
183 -184 391 0
-183 -184 -391 0
185 186 -392 0
-185 186 392 0
185 -186 392 0
-185 -186 -392 0
187 188 -393 0
-187 188 393 0
187 -188 393 0
-187 -188 -393 0
189 190 -394 0
-189 190 394 0
189 -190 394 0
-189 -190 -394 0
191 192 -395 0
-191 192 395 0
191 -192 395 0
-191 -192 -395 0
193 194 -396 0
-193 194 396 0
193 -194 396 0
-193 -194 -396 0
195 196 -397 0
-195 196 397 0
195 -196 397 0
-195 -196 -397 0
197 198 -398 0
-197 198 398 0
197 -198 398 0
-197 -198 -398 0
199 200 -399 0
-199 200 399 0
199 -200 399 0
-199 -200 -399 0
201 202 -400 0
-201 202 400 0
201 -202 400 0
-201 -202 -400 0
203 204 -401 0
-203 204 401 0
203 -204 401 0
-203 -204 -401 0
205 206 -402 0
-205 206 402 0
205 -206 402 0
-205 -206 -402 0
207 208 -403 0
-207 208 403 0
207 -208 403 0
-207 -208 -403 0
209 210 -404 0
-209 210 404 0
209 -210 404 0
-209 -210 -404 0
211 212 -405 0
-211 212 405 0
211 -212 405 0
-211 -212 -405 0
213 214 -406 0
-213 214 406 0
213 -214 406 0
-213 -214 -406 0
215 216 -407 0
-215 216 407 0
215 -216 407 0
-215 -216 -407 0
217 218 -408 0
-217 218 408 0
217 -218 408 0
-217 -218 -408 0
219 220 -409 0
-219 220 409 0
219 -220 409 0
-219 -220 -409 0
221 222 -410 0
-221 222 410 0
221 -222 410 0
-221 -222 -410 0
223 224 -411 0
-223 224 411 0
223 -224 411 0
-223 -224 -411 0
225 226 -412 0
-225 226 412 0
225 -226 412 0
-225 -226 -412 0
227 228 -413 0
-227 228 413 0
227 -228 413 0
-227 -228 -413 0
229 230 -414 0
-229 230 414 0
229 -230 414 0
-229 -230 -414 0
231 232 -415 0
-231 232 415 0
231 -232 415 0
-231 -232 -415 0
233 234 -416 0
-233 234 416 0
233 -234 416 0
-233 -234 -416 0
235 236 -417 0
-235 236 417 0
235 -236 417 0
-235 -236 -417 0
237 238 -418 0
-237 238 418 0
237 -238 418 0
-237 -238 -418 0
239 240 -419 0
-239 240 419 0
239 -240 419 0
-239 -240 -419 0
241 242 -420 0
-241 242 420 0
241 -242 420 0
-241 -242 -420 0
243 244 -421 0
-243 244 421 0
243 -244 421 0
-243 -244 -421 0
245 246 -422 0
-245 246 422 0
245 -246 422 0
-245 -246 -422 0
247 248 -423 0
-247 248 423 0
247 -248 423 0
-247 -248 -423 0
249 250 -424 0
-249 250 424 0
249 -250 424 0
-249 -250 -424 0
251 252 -425 0
-251 252 425 0
251 -252 425 0
-251 -252 -425 0
253 254 -426 0
-253 254 426 0
253 -254 426 0
-253 -254 -426 0
255 256 -427 0
-255 256 427 0
255 -256 427 0
-255 -256 -427 0
257 258 -428 0
-257 258 428 0
257 -258 428 0
-257 -258 -428 0
259 260 -429 0
-259 260 429 0
259 -260 429 0
-259 -260 -429 0
261 262 -430 0
-261 262 430 0
261 -262 430 0
-261 -262 -430 0
263 264 -431 0
-263 264 431 0
263 -264 431 0
-263 -264 -431 0
265 266 -432 0
-265 266 432 0
265 -266 432 0
-265 -266 -432 0
267 268 -433 0
-267 268 433 0
267 -268 433 0
-267 -268 -433 0
269 270 -434 0
-269 270 434 0
269 -270 434 0
-269 -270 -434 0
271 272 -435 0
-271 272 435 0
271 -272 435 0
-271 -272 -435 0
273 274 -436 0
-273 274 436 0
273 -274 436 0
-273 -274 -436 0
275 276 -437 0
-275 276 437 0
275 -276 437 0
-275 -276 -437 0
277 278 -438 0
-277 278 438 0
277 -278 438 0
-277 -278 -438 0
279 280 -439 0
-279 280 439 0
279 -280 439 0
-279 -280 -439 0
281 282 -440 0
-281 282 440 0
281 -282 440 0
-281 -282 -440 0
283 284 -441 0
-283 284 441 0
283 -284 441 0
-283 -284 -441 0
285 286 -442 0
-285 286 442 0
285 -286 442 0
-285 -286 -442 0
287 288 -443 0
-287 288 443 0
287 -288 443 0
-287 -288 -443 0
289 290 -444 0
-289 290 444 0
289 -290 444 0
-289 -290 -444 0
291 292 -445 0
-291 292 445 0
291 -292 445 0
-291 -292 -445 0
293 294 -446 0
-293 294 446 0
293 -294 446 0
-293 -294 -446 0
295 296 -447 0
-295 296 447 0
295 -296 447 0
-295 -296 -447 0
300 301 -448 0
-300 301 448 0
300 -301 448 0
-300 -301 -448 0
302 303 -449 0
-302 303 449 0
302 -303 449 0
-302 -303 -449 0
304 305 -450 0
-304 305 450 0
304 -305 450 0
-304 -305 -450 0
306 307 -451 0
-306 307 451 0
306 -307 451 0
-306 -307 -451 0
308 309 -452 0
-308 309 452 0
308 -309 452 0
-308 -309 -452 0
310 311 -453 0
-310 311 453 0
310 -311 453 0
-310 -311 -453 0
312 313 -454 0
-312 313 454 0
312 -313 454 0
-312 -313 -454 0
314 315 -455 0
-314 315 455 0
314 -315 455 0
-314 -315 -455 0
316 317 -456 0
-316 317 456 0
316 -317 456 0
-316 -317 -456 0
318 319 -457 0
-318 319 457 0
318 -319 457 0
-318 -319 -457 0
320 321 -458 0
-320 321 458 0
320 -321 458 0
-320 -321 -458 0
322 323 -459 0
-322 323 459 0
322 -323 459 0
-322 -323 -459 0
324 325 -460 0
-324 325 460 0
324 -325 460 0
-324 -325 -460 0
326 327 -461 0
-326 327 461 0
326 -327 461 0
-326 -327 -461 0
328 329 -462 0
-328 329 462 0
328 -329 462 0
-328 -329 -462 0
330 331 -463 0
-330 331 463 0
330 -331 463 0
-330 -331 -463 0
332 333 -464 0
-332 333 464 0
332 -333 464 0
-332 -333 -464 0
334 335 -465 0
-334 335 465 0
334 -335 465 0
-334 -335 -465 0
336 337 -466 0
-336 337 466 0
336 -337 466 0
-336 -337 -466 0
338 339 -467 0
-338 339 467 0
338 -339 467 0
-338 -339 -467 0
340 341 -468 0
-340 341 468 0
340 -341 468 0
-340 -341 -468 0
342 343 -469 0
-342 343 469 0
342 -343 469 0
-342 -343 -469 0
344 345 -470 0
-344 345 470 0
344 -345 470 0
-344 -345 -470 0
346 347 -471 0
-346 347 471 0
346 -347 471 0
-346 -347 -471 0
348 349 -472 0
-348 349 472 0
348 -349 472 0
-348 -349 -472 0
350 351 -473 0
-350 351 473 0
350 -351 473 0
-350 -351 -473 0
352 353 -474 0
-352 353 474 0
352 -353 474 0
-352 -353 -474 0
354 355 -475 0
-354 355 475 0
354 -355 475 0
-354 -355 -475 0
356 357 -476 0
-356 357 476 0
356 -357 476 0
-356 -357 -476 0
358 359 -477 0
-358 359 477 0
358 -359 477 0
-358 -359 -477 0
360 361 -478 0
-360 361 478 0
360 -361 478 0
-360 -361 -478 0
362 363 -479 0
-362 363 479 0
362 -363 479 0
-362 -363 -479 0
364 365 -480 0
-364 365 480 0
364 -365 480 0
-364 -365 -480 0
366 367 -481 0
-366 367 481 0
366 -367 481 0
-366 -367 -481 0
368 369 -482 0
-368 369 482 0
368 -369 482 0
-368 -369 -482 0
370 371 -483 0
-370 371 483 0
370 -371 483 0
-370 -371 -483 0
372 373 -484 0
-372 373 484 0
372 -373 484 0
-372 -373 -484 0
374 375 -485 0
-374 375 485 0
374 -375 485 0
-374 -375 -485 0
376 377 -486 0
-376 377 486 0
376 -377 486 0
-376 -377 -486 0
378 379 -487 0
-378 379 487 0
378 -379 487 0
-378 -379 -487 0
380 381 -488 0
-380 381 488 0
380 -381 488 0
-380 -381 -488 0
382 383 -489 0
-382 383 489 0
382 -383 489 0
-382 -383 -489 0
384 385 -490 0
-384 385 490 0
384 -385 490 0
-384 -385 -490 0
386 387 -491 0
-386 387 491 0
386 -387 491 0
-386 -387 -491 0
388 389 -492 0
-388 389 492 0
388 -389 492 0
-388 -389 -492 0
390 391 -493 0
-390 391 493 0
390 -391 493 0
-390 -391 -493 0
392 393 -494 0
-392 393 494 0
392 -393 494 0
-392 -393 -494 0
394 395 -495 0
-394 395 495 0
394 -395 495 0
-394 -395 -495 0
396 397 -496 0
-396 397 496 0
396 -397 496 0
-396 -397 -496 0
398 399 -497 0
-398 399 497 0
398 -399 497 0
-398 -399 -497 0
400 401 -498 0
-400 401 498 0
400 -401 498 0
-400 -401 -498 0
402 403 -499 0
-402 403 499 0
402 -403 499 0
-402 -403 -499 0
404 405 -500 0
-404 405 500 0
404 -405 500 0
-404 -405 -500 0
406 407 -501 0
-406 407 501 0
406 -407 501 0
-406 -407 -501 0
408 409 -502 0
-408 409 502 0
408 -409 502 0
-408 -409 -502 0
410 411 -503 0
-410 411 503 0
410 -411 503 0
-410 -411 -503 0
412 413 -504 0
-412 413 504 0
412 -413 504 0
-412 -413 -504 0
414 415 -505 0
-414 415 505 0
414 -415 505 0
-414 -415 -505 0
416 417 -506 0
-416 417 506 0
416 -417 506 0
-416 -417 -506 0
418 419 -507 0
-418 419 507 0
418 -419 507 0
-418 -419 -507 0
420 421 -508 0
-420 421 508 0
420 -421 508 0
-420 -421 -508 0
422 423 -509 0
-422 423 509 0
422 -423 509 0
-422 -423 -509 0
424 425 -510 0
-424 425 510 0
424 -425 510 0
-424 -425 -510 0
426 427 -511 0
-426 427 511 0
426 -427 511 0
-426 -427 -511 0
428 429 -512 0
-428 429 512 0
428 -429 512 0
-428 -429 -512 0
430 431 -513 0
-430 431 513 0
430 -431 513 0
-430 -431 -513 0
432 433 -514 0
-432 433 514 0
432 -433 514 0
-432 -433 -514 0
434 435 -515 0
-434 435 515 0
434 -435 515 0
-434 -435 -515 0
436 437 -516 0
-436 437 516 0
436 -437 516 0
-436 -437 -516 0
438 439 -517 0
-438 439 517 0
438 -439 517 0
-438 -439 -517 0
440 441 -518 0
-440 441 518 0
440 -441 518 0
-440 -441 -518 0
442 443 -519 0
-442 443 519 0
442 -443 519 0
-442 -443 -519 0
444 445 -520 0
-444 445 520 0
444 -445 520 0
-444 -445 -520 0
446 447 -521 0
-446 447 521 0
446 -447 521 0
-446 -447 -521 0
448 449 -522 0
-448 449 522 0
448 -449 522 0
-448 -449 -522 0
450 451 -523 0
-450 451 523 0
450 -451 523 0
-450 -451 -523 0
452 453 -524 0
-452 453 524 0
452 -453 524 0
-452 -453 -524 0
454 455 -525 0
-454 455 525 0
454 -455 525 0
-454 -455 -525 0
456 457 -526 0
-456 457 526 0
456 -457 526 0
-456 -457 -526 0
458 459 -527 0
-458 459 527 0
458 -459 527 0
-458 -459 -527 0
460 461 -528 0
-460 461 528 0
460 -461 528 0
-460 -461 -528 0
462 463 -529 0
-462 463 529 0
462 -463 529 0
-462 -463 -529 0
464 465 -530 0
-464 465 530 0
464 -465 530 0
-464 -465 -530 0
466 467 -531 0
-466 467 531 0
466 -467 531 0
-466 -467 -531 0
468 469 -532 0
-468 469 532 0
468 -469 532 0
-468 -469 -532 0
470 471 -533 0
-470 471 533 0
470 -471 533 0
-470 -471 -533 0
472 473 -534 0
-472 473 534 0
472 -473 534 0
-472 -473 -534 0
474 475 -535 0
-474 475 535 0
474 -475 535 0
-474 -475 -535 0
476 477 -536 0
-476 477 536 0
476 -477 536 0
-476 -477 -536 0
478 479 -537 0
-478 479 537 0
478 -479 537 0
-478 -479 -537 0
480 481 -538 0
-480 481 538 0
480 -481 538 0
-480 -481 -538 0
482 483 -539 0
-482 483 539 0
482 -483 539 0
-482 -483 -539 0
484 485 -540 0
-484 485 540 0
484 -485 540 0
-484 -485 -540 0
486 487 -541 0
-486 487 541 0
486 -487 541 0
-486 -487 -541 0
488 489 -542 0
-488 489 542 0
488 -489 542 0
-488 -489 -542 0
490 491 -543 0
-490 491 543 0
490 -491 543 0
-490 -491 -543 0
492 493 -544 0
-492 493 544 0
492 -493 544 0
-492 -493 -544 0
494 495 -545 0
-494 495 545 0
494 -495 545 0
-494 -495 -545 0
496 497 -546 0
-496 497 546 0
496 -497 546 0
-496 -497 -546 0
498 499 -547 0
-498 499 547 0
498 -499 547 0
-498 -499 -547 0
500 501 -548 0
-500 501 548 0
500 -501 548 0
-500 -501 -548 0
502 503 -549 0
-502 503 549 0
502 -503 549 0
-502 -503 -549 0
504 505 -550 0
-504 505 550 0
504 -505 550 0
-504 -505 -550 0
506 507 -551 0
-506 507 551 0
506 -507 551 0
-506 -507 -551 0
508 509 -552 0
-508 509 552 0
508 -509 552 0
-508 -509 -552 0
510 511 -553 0
-510 511 553 0
510 -511 553 0
-510 -511 -553 0
512 513 -554 0
-512 513 554 0
512 -513 554 0
-512 -513 -554 0
514 515 -555 0
-514 515 555 0
514 -515 555 0
-514 -515 -555 0
516 517 -556 0
-516 517 556 0
516 -517 556 0
-516 -517 -556 0
518 519 -557 0
-518 519 557 0
518 -519 557 0
-518 -519 -557 0
520 521 -558 0
-520 521 558 0
520 -521 558 0
-520 -521 -558 0
522 523 -559 0
-522 523 559 0
522 -523 559 0
-522 -523 -559 0
524 525 -560 0
-524 525 560 0
524 -525 560 0
-524 -525 -560 0
526 527 -561 0
-526 527 561 0
526 -527 561 0
-526 -527 -561 0
528 529 -562 0
-528 529 562 0
528 -529 562 0
-528 -529 -562 0
530 531 -563 0
-530 531 563 0
530 -531 563 0
-530 -531 -563 0
532 533 -564 0
-532 533 564 0
532 -533 564 0
-532 -533 -564 0
534 535 -565 0
-534 535 565 0
534 -535 565 0
-534 -535 -565 0
536 537 -566 0
-536 537 566 0
536 -537 566 0
-536 -537 -566 0
538 539 -567 0
-538 539 567 0
538 -539 567 0
-538 -539 -567 0
540 541 -568 0
-540 541 568 0
540 -541 568 0
-540 -541 -568 0
542 543 -569 0
-542 543 569 0
542 -543 569 0
-542 -543 -569 0
544 545 -570 0
-544 545 570 0
544 -545 570 0
-544 -545 -570 0
546 547 -571 0
-546 547 571 0
546 -547 571 0
-546 -547 -571 0
548 549 -572 0
-548 549 572 0
548 -549 572 0
-548 -549 -572 0
550 551 -573 0
-550 551 573 0
550 -551 573 0
-550 -551 -573 0
552 553 -574 0
-552 553 574 0
552 -553 574 0
-552 -553 -574 0
554 555 -575 0
-554 555 575 0
554 -555 575 0
-554 -555 -575 0
556 557 -576 0
-556 557 576 0
556 -557 576 0
-556 -557 -576 0
559 560 -577 0
-559 560 577 0
559 -560 577 0
-559 -560 -577 0
561 562 -578 0
-561 562 578 0
561 -562 578 0
-561 -562 -578 0
563 564 -579 0
-563 564 579 0
563 -564 579 0
-563 -564 -579 0
565 566 -580 0
-565 566 580 0
565 -566 580 0
-565 -566 -580 0
567 568 -581 0
-567 568 581 0
567 -568 581 0
-567 -568 -581 0
569 570 -582 0
-569 570 582 0
569 -570 582 0
-569 -570 -582 0
571 572 -583 0
-571 572 583 0
571 -572 583 0
-571 -572 -583 0
573 574 -584 0
-573 574 584 0
573 -574 584 0
-573 -574 -584 0
575 576 -585 0
-575 576 585 0
575 -576 585 0
-575 -576 -585 0
577 578 -586 0
-577 578 586 0
577 -578 586 0
-577 -578 -586 0
579 580 -587 0
-579 580 587 0
579 -580 587 0
-579 -580 -587 0
581 582 -588 0
-581 582 588 0
581 -582 588 0
-581 -582 -588 0
583 584 -589 0
-583 584 589 0
583 -584 589 0
-583 -584 -589 0
585 558 -590 0
-585 558 590 0
585 -558 590 0
-585 -558 -590 0
586 587 -591 0
-586 587 591 0
586 -587 591 0
-586 -587 -591 0
588 589 -592 0
-588 589 592 0
588 -589 592 0
-588 -589 -592 0
591 592 -593 0
-591 592 593 0
591 -592 593 0
-591 -592 -593 0
593 590 -297 0
-593 590 297 0
593 -590 297 0
-593 -590 -297 0
